data;

param n   := 4;
param n_d := 2;

set A := (1,2) (1,4) (1,3) (2,3) (2,4) (3,4);

param : S D F :=
1  1 3 9
2  2 4 9 ;

param: c :=
1 2 3  
1 3 16  
1 4 2 
2 3 2 
2 4 16 
3 4 2 
;


param lambda := 10;
